; benchmark generated from python API
(set-info :status unknown)
(declare-datatypes ((RealState 0)) (((RMk1 (rval1 Real)) (RMk2 (rval2 Real)))))
 (assert
 (exists ((|v11:0_st| RealState) (val!5796 Real) )(exists ((|v10:1_st| RealState) (val!5797 Real) )(exists ((|v9:2_st| RealState) (val!5798 Real) )(exists ((|v8:3_st| RealState) (val!5799 Real) )(forall ((|v7:4| Real) )(forall ((|v6:5| Real) )(forall ((|v5:6| Real) )(forall ((|v4:7| Real) )(exists ((|v3:8_st| RealState) (val!5800 Real) )(exists ((|v2:9_st| RealState) (val!5801 Real) )(exists ((|v1:10_st| RealState) (val!5802 Real) )(exists ((|v0:11_st| RealState) (val!5803 Real) )(let ((?x2572 (- 4.0)))
 (let ((?x2749 (- 17.0)))
 (let ((?x3153 (* ?x2749 |v6:5|)))
 (let ((?x912 (* 10.0 |v6:5|)))
 (let ((?x2046 (+ (+ (+ (* (- 9.0) (rval2 |v2:9_st|)) (* (- 10.0) |v6:5|)) ?x912) ?x3153)))
 (let ((?x2846 (* 16.0 |v4:7|)))
 (let ((?x2250 (rval2 |v10:1_st|)))
 (let ((?x1415 (- 15.0)))
 (let ((?x3288 (* ?x1415 ?x2250)))
 (let (($x3148 (and (<= (+ (+ (+ ?x3288 (* (- 1.0) ?x2250)) ?x3288) ?x2846) 20.0) (<= ?x2046 ?x2572))))
 (let ((?x3147 (rval2 |v9:2_st|)))
 (let ((?x1095 (* 7.0 ?x3147)))
 (let ((?x2308 (+ (+ (* (- 2.0) (rval2 |v11:0_st|)) (* ?x2572 (rval2 |v2:9_st|))) (* 14.0 (rval2 |v11:0_st|)))))
 (let ((?x612 (* 8.0 |v4:7|)))
 (let ((?x1614 (* 5.0 |v6:5|)))
 (let ((?x1913 (+ (+ (+ (* 12.0 (rval2 |v3:8_st|)) (* 20.0 (rval2 |v2:9_st|))) ?x1614) ?x612)))
 (let ((?x2397 (rval2 |v3:8_st|)))
 (let ((?x3259 (* 3.0 ?x2397)))
 (let ((?x500 (+ (+ (+ (* ?x2572 (rval2 |v0:11_st|)) (* (- 10.0) (rval2 |v11:0_st|))) ?x3259) (* (- 1.0) ?x2397))))
 (let ((?x1319 (- 13.0)))
 (let ((?x2080 (* ?x1319 ?x2397)))
 (let ((?x2312 (+ (+ (+ (* 0.0 (rval2 |v11:0_st|)) (* 15.0 |v6:5|)) (* (- 8.0) ?x3147)) ?x2080)))
 (let ((?x1774 (- 11.0)))
 (let ((?x3077 (+ (+ (+ (* 20.0 |v6:5|) (* 15.0 (rval2 |v1:10_st|))) (* (- 20.0) |v5:6|)) ?x3153)))
 (let ((?x847 (+ (+ (+ (* 20.0 (rval2 |v1:10_st|)) (* ?x1319 |v6:5|)) ?x2250) (* (- 6.0) |v6:5|))))
 (let (($x857 (and (or (<= ?x847 18.0) (<= ?x3077 ?x1774)) (and (<= ?x2312 10.0) (<= ?x500 18.0)))))
 (let (($x1038 (and $x857 (and (and (<= ?x1913 8.0) (<= (+ ?x2308 ?x1095) 12.0)) $x3148))))
 (let ((?x2096 (- 10.0)))
 (let ((?x721 (rval2 |v0:11_st|)))
 (let ((?x3044 (- 20.0)))
 (let ((?x1108 (* ?x3044 ?x721)))
 (let ((?x496 (- 19.0)))
 (let ((?x1939 (* 16.0 ?x2397)))
 (let ((?x938 (+ (+ (+ (* 13.0 (rval2 |v1:10_st|)) (* ?x2096 (rval2 |v2:9_st|))) ?x1939) (* (- 14.0) |v7:4|))))
 (let (($x1552 (and (<= ?x938 ?x496) (<= (+ (+ (+ (* 14.0 ?x2397) |v5:6|) (* 7.0 |v7:4|)) ?x1108) ?x2096))))
 (let ((?x2648 (- 8.0)))
 (let ((?x1841 (+ (+ (+ (* 7.0 |v6:5|) (* 17.0 |v6:5|)) (* (- 1.0) |v7:4|)) ?x721)))
 (let ((?x71 (- 9.0)))
 (let ((?x921 (* 0.0 |v7:4|)))
 (let ((?x2618 (+ (+ (* (- 18.0) (rval2 |v2:9_st|)) (* (- 7.0) (rval2 |v8:3_st|))) ?x921)))
 (let (($x2329 (and (and (<= (+ ?x2618 (* (- 5.0) (rval2 |v2:9_st|))) ?x71) (<= ?x1841 ?x2648)) $x1552)))
 (let ((?x2946 (- 12.0)))
 (let ((?x2752 (* 5.0 |v7:4|)))
 (let ((?x788 (+ (+ (+ (* (- 2.0) |v6:5|) (* 17.0 ?x3147)) (* 10.0 ?x3147)) ?x2752)))
 (let ((?x220 (rval2 |v11:0_st|)))
 (let ((?x416 (* 6.0 ?x220)))
 (let ((?x2425 (+ (+ (+ (* ?x71 (rval2 |v8:3_st|)) (* 18.0 ?x3147)) ?x416) (* 6.0 (rval2 |v8:3_st|)))))
 (let ((?x1872 (+ (+ (+ (* ?x1415 |v7:4|) (* ?x2946 |v6:5|)) (* (- 16.0) (rval2 |v1:10_st|))) (* ?x71 ?x721))))
 (let ((?x1846 (+ (+ (+ (* 15.0 |v6:5|) (* 3.0 |v5:6|)) (* (- 18.0) |v4:7|)) (* (- 7.0) |v5:6|))))
 (let (($x2491 (and (and (<= ?x1846 ?x71) (<= ?x1872 ?x3044)) (and (<= ?x2425 0.0) (<= ?x788 ?x2946)))))
 (let (($x1962 (<= (+ (+ (+ (* 7.0 (rval2 |v8:3_st|)) ?x3288) ?x2250) (* 9.0 ?x2397)) 19.0)))
 (let ((?x273 (rval2 |v2:9_st|)))
 (let ((?x1057 (* 6.0 ?x273)))
 (let ((?x224 (+ (+ (+ (* 0.0 (rval2 |v1:10_st|)) (* 9.0 |v4:7|)) ?x1057) (* ?x496 ?x3147))))
 (let ((?x2072 (- 14.0)))
 (let ((?x3205 (+ (+ (+ (* (- 18.0) |v6:5|) (* ?x496 (rval2 |v8:3_st|))) (* ?x1415 |v6:5|)) ?x2080)))
 (let ((?x1709 (- 16.0)))
 (let ((?x252 (* 10.0 ?x220)))
 (let ((?x527 (+ (+ (* 3.0 (rval2 |v1:10_st|)) (* ?x1415 (rval2 |v8:3_st|))) (* 11.0 ?x220))))
 (let (($x75 (and (or (<= (+ ?x527 ?x252) ?x1709) (<= ?x3205 ?x2072)) (and (<= ?x224 6.0) $x1962))))
 (let ((?x696 (* ?x71 |v7:4|)))
 (let ((?x2795 (+ (+ (+ (* ?x2096 (rval2 |v8:3_st|)) (* (- 18.0) ?x2250)) (* 14.0 |v7:4|)) ?x696)))
 (let ((?x1642 (- 18.0)))
 (let ((?x1893 (* ?x1642 |v4:7|)))
 (let ((?x737 (+ (+ (+ (* 9.0 ?x220) (* 20.0 |v5:6|)) (* (- 1.0) ?x3147)) ?x1893)))
 (let ((?x2387 (- 1.0)))
 (let ((?x961 (- 2.0)))
 (let ((?x1609 (* ?x961 |v5:6|)))
 (let ((?x1435 (+ (+ (+ (* 12.0 ?x220) (* 2.0 (rval2 |v1:10_st|))) (* ?x961 |v7:4|)) ?x1609)))
 (let ((?x977 (- 6.0)))
 (let ((?x888 (+ (+ (+ (* ?x977 ?x721) (* ?x1319 ?x721)) (* 20.0 (rval2 |v1:10_st|))) (* 9.0 ?x2250))))
 (let (($x300 (and (and (<= ?x888 ?x977) (<= ?x1435 ?x2387)) (and (<= ?x737 10.0) (<= ?x2795 11.0)))))
 (let ((?x544 (* 18.0 |v6:5|)))
 (let (($x2334 (<= (+ (+ (+ (* ?x961 |v6:5|) (* 12.0 ?x2250)) (* ?x2749 ?x220)) ?x544) 11.0)))
 (let ((?x1633 (- 7.0)))
 (let ((?x2232 (* 9.0 |v6:5|)))
 (let (($x2299 (<= (+ (+ (+ (* ?x1415 ?x273) (* ?x1633 ?x2250)) (* 8.0 |v7:4|)) ?x2232) ?x1633)))
 (let ((?x1750 (+ (+ (+ (* 5.0 (rval2 |v8:3_st|)) (* 20.0 |v4:7|)) (* ?x2749 |v5:6|)) ?x1108)))
 (let ((?x576 (* 19.0 |v5:6|)))
 (let ((?x2935 (+ (+ (+ (* 2.0 ?x220) (* 20.0 |v6:5|)) (* (- 3.0) ?x220)) ?x576)))
 (let (($x2895 (<= (+ (+ (+ (* ?x1633 ?x721) ?x912) (* (- 3.0) |v4:7|)) (* 16.0 |v5:6|)) 15.0)))
 (let ((?x2503 (- 3.0)))
 (let ((?x595 (* ?x2503 |v4:7|)))
 (let (($x1754 (<= (+ (+ (+ (* ?x496 (rval2 |v8:3_st|)) (* ?x1709 |v6:5|)) (* ?x2946 |v4:7|)) ?x595) ?x1642)))
 (let ((?x506 (* ?x1774 |v5:6|)))
 (let (($x1288 (<= (+ (+ (+ (* 14.0 ?x3147) (* 4.0 |v5:6|)) (* 16.0 ?x273)) ?x506) ?x1319)))
 (let (($x115 (and (and (<= (+ (+ (+ ?x252 ?x506) ?x1939) (* 7.0 |v7:4|)) 0.0) $x1288) (and $x1754 $x2895))))
 (let (($x956 (or $x115 (and (and (<= ?x2935 15.0) (<= ?x1750 16.0)) (and $x2299 $x2334)))))
 (let ((?x1258 (+ (+ (+ (* ?x2503 |v7:4|) (* 18.0 |v5:6|)) (* ?x1709 (rval2 |v1:10_st|))) (* ?x1633 ?x2397))))
 (let ((?x2418 (* ?x1633 |v6:5|)))
 (let ((?x79 (+ (+ (+ (* ?x1415 (rval2 |v8:3_st|)) (* ?x2648 (rval2 |v1:10_st|))) (* 17.0 ?x721)) ?x2418)))
 (let ((?x3408 (+ (+ (+ (* ?x71 ?x220) (* 6.0 ?x2250)) (* ?x961 (rval2 |v1:10_st|))) ?x612)))
 (let (($x2697 (<= (+ (+ (+ ?x912 (* 16.0 ?x220)) (* ?x2096 |v4:7|)) (* 2.0 |v5:6|)) 9.0)))
 (let (($x3018 (and (and $x2697 (<= ?x3408 10.0)) (and (<= ?x79 5.0) (<= ?x1258 11.0)))))
 (let (($x239 (<= (+ (+ (+ (* ?x1774 |v4:7|) (* ?x961 |v7:4|)) (* 6.0 |v4:7|)) ?x912) ?x3044)))
 (let ((?x2202 (* ?x2946 |v6:5|)))
 (let ((?x1635 (+ (+ (+ (* ?x977 (rval2 |v8:3_st|)) (* 12.0 ?x721)) (* 19.0 ?x3147)) ?x2202)))
 (let ((?x1493 (* ?x1319 |v6:5|)))
 (let ((?x2042 (+ (+ (+ (* 18.0 |v7:4|) (* ?x1709 (rval2 |v1:10_st|))) (* ?x2648 (rval2 |v8:3_st|))) ?x1493)))
 (let ((?x1602 (+ (+ (+ (* ?x1642 (rval2 |v1:10_st|)) (* ?x1709 |v5:6|)) (* ?x961 ?x2397)) (* ?x2572 ?x220))))
 (let (($x2529 (and (and (<= ?x1602 ?x496) (<= ?x2042 13.0)) (and (<= ?x1635 8.0) $x239))))
 (let ((?x3464 (+ (+ (+ (* ?x2503 ?x721) (* 4.0 |v5:6|)) (* 10.0 |v7:4|)) (* ?x1774 ?x721))))
 (let ((?x3379 (* 12.0 ?x3147)))
 (let ((?x1870 (+ (+ (+ (* 7.0 ?x273) (* ?x961 (rval2 |v8:3_st|))) (* 13.0 ?x273)) ?x3379)))
 (let ((?x3093 (+ (+ (+ (* 20.0 |v7:4|) (* (- 5.0) |v7:4|)) ?x576) (* ?x2387 (rval2 |v1:10_st|)))))
 (let ((?x158 (* ?x1633 |v4:7|)))
 (let ((?x556 (+ (+ (+ (* ?x2946 (rval2 |v1:10_st|)) (* ?x2387 |v6:5|)) (* 2.0 |v5:6|)) ?x158)))
 (let (($x1005 (and (and (<= ?x556 ?x2749) (<= ?x3093 ?x1642)) (and (<= ?x1870 ?x3044) (<= ?x3464 ?x2072)))))
 (let ((?x298 (* ?x1774 |v6:5|)))
 (let (($x2562 (<= (+ (+ (+ (* ?x2648 (rval2 |v1:10_st|)) (* 6.0 |v4:7|)) ?x1609) ?x298) ?x1642)))
 (let ((?x1662 (+ (+ (+ (* (- 5.0) ?x2250) (* 10.0 (rval2 |v1:10_st|))) ?x2250) (* ?x1319 (rval2 |v1:10_st|)))))
 (let ((?x290 (+ (+ (+ (* 0.0 ?x721) (* 12.0 ?x721)) (* ?x2387 (rval2 |v8:3_st|))) ?x3379)))
 (let ((?x454 (* 10.0 |v5:6|)))
 (let (($x2863 (and (<= (+ (+ (+ (* 3.0 |v4:7|) (* 15.0 ?x2250)) ?x454) ?x454) ?x1774) (<= ?x290 14.0))))
 (let ((?x2282 (* ?x2096 ?x220)))
 (let (($x442 (<= (+ (+ (+ (* 5.0 |v5:6|) (* 18.0 ?x273)) (* 4.0 ?x220)) ?x2282) 18.0)))
 (let (($x1078 (or (<= (+ (+ (+ ?x696 (* 17.0 ?x3147)) (* 18.0 |v4:7|)) ?x2250) 13.0) $x442)))
 (let ((?x978 (* ?x1319 |v5:6|)))
 (let (($x1938 (<= (+ (+ (+ (* 12.0 |v5:6|) (* ?x2387 ?x273)) (* 7.0 ?x2397)) ?x978) 7.0)))
 (let ((?x295 (+ (+ (+ (* 4.0 ?x3147) (* 10.0 ?x3147)) (* ?x496 ?x273)) (* ?x71 (rval2 |v1:10_st|)))))
 (let ((?x3138 (rval2 |v1:10_st|)))
 (let ((?x574 (* 9.0 ?x3138)))
 (let ((?x63 (* 15.0 |v7:4|)))
 (let (($x1263 (<= (+ (+ (+ (* 4.0 ?x3147) (* 5.0 ?x220)) (* 15.0 ?x721)) ?x63) ?x2503)))
 (let (($x2063 (or $x1263 (<= (+ (+ (+ (* 7.0 |v5:6|) ?x158) (* 14.0 |v6:5|)) ?x574) ?x1709))))
 (let ((?x1960 (* 4.0 ?x2397)))
 (let (($x2545 (<= (+ (+ (+ (* 20.0 ?x721) (* ?x2572 ?x3138)) (* 8.0 |v6:5|)) ?x1960) 14.0)))
 (let ((?x2071 (* 17.0 ?x220)))
 (let (($x3025 (<= (+ (+ (+ (* 18.0 ?x220) (* ?x496 ?x273)) (* ?x3044 |v4:7|)) ?x2071) 1.0)))
 (let (($x2386 (and (and (and $x3025 $x2545) $x2063) (and (and (<= ?x295 10.0) $x1938) $x1078))))
 (let ((?x2330 (* ?x496 |v5:6|)))
 (let ((?x2942 (+ (+ (+ (* 15.0 ?x721) (* 11.0 |v6:5|)) (* 18.0 (rval2 |v8:3_st|))) ?x2330)))
 (let (($x480 (<= (+ (+ (+ (* 20.0 ?x721) (* 3.0 ?x3147)) ?x158) (* 15.0 |v5:6|)) ?x2503)))
 (let ((?x2828 (* 2.0 |v7:4|)))
 (let (($x153 (<= (+ (+ (+ (* 10.0 ?x3138) (* ?x2503 ?x220)) (* 13.0 ?x2250)) ?x2828) 12.0)))
 (let ((?x162 (+ (+ (+ (* 20.0 ?x3138) (* ?x2503 ?x2397)) (* ?x1774 ?x2250)) (* ?x1709 |v7:4|))))
 (let (($x2055 (and (<= (+ (+ (+ ?x978 ?x2202) ?x298) (* ?x1633 ?x721)) 4.0) (<= (+ (+ (+ ?x273 (* ?x1633 |v7:4|)) (* ?x2072 ?x2397)) ?x2202) ?x1415))))
 (let (($x2316 (<= (+ (+ (+ (* 7.0 ?x721) (* 3.0 ?x3147)) ?x544) (* ?x977 ?x220)) 0.0)))
 (let ((?x2718 (* 13.0 |v6:5|)))
 (let ((?x1396 (+ (+ (+ (* ?x2072 ?x2397) (* 17.0 (rval2 |v8:3_st|))) (* ?x3044 ?x3147)) ?x2718)))
 (let (($x1549 (and (and (and (<= ?x1396 18.0) $x2316) $x2055) (and (or (<= ?x162 0.0) $x153) (and $x480 (<= ?x2942 7.0))))))
 (let (($x748 (and (and $x1549 $x2386) (and (and (or $x2863 (or (<= ?x1662 ?x2503) $x2562)) $x1005) (and $x2529 $x3018)))))
 (let (($x2076 (and $x748 (and (and $x956 (and $x300 $x75)) (and (and $x2491 $x2329) $x1038)))))
 (let (($x1161 (not (= |v0:11_st| (RMk1 val!5803)))))
 (let (($x1272 (not (= |v1:10_st| (RMk1 val!5802)))))
 (let (($x1346 (not (= |v2:9_st| (RMk1 val!5801)))))
 (let (($x2005 (not (= |v3:8_st| (RMk1 val!5800)))))
 (let (($x1367 (not (= |v8:3_st| (RMk1 val!5799)))))
 (let (($x3058 (not (= |v9:2_st| (RMk1 val!5798)))))
 (let (($x1294 (not (= |v10:1_st| (RMk1 val!5797)))))
 (let (($x2915 (not (= |v11:0_st| (RMk1 val!5796)))))
 (and $x2915 $x1294 $x3058 $x1367 $x2005 $x1346 $x1272 $x1161 $x2076)))))))))))))))))))))))))))))))))))))))))))))))))))))))))))))))))))))))))))))))))))))))))))))))))))))))))))))))))))))))))))))))))))))))))))))))))))))))))
 )
 )
 )
 )
 )
 )
 )
 )
 )
 )
 )
 )
(check-sat)
